proyfinal/src/viki/013/experimentInOfficeAgust.take6.output/99ca824b-cea7-435c-ba04-51716f24b68d.als.out
Reading from standard input... Use '--help' for help.
============================[ Problem Statistics ]=============================
|                                                                             |
|  Number of variables:         87638                                         |
|  Number of clauses:          161767                                         |
|  Parse time:                   0.04 s                                       |
|                                                                             |
============================[ Search Statistics ]==============================
| Conflicts |          ORIGINAL         |          LEARNT          | Progress |
|           |    Vars  Clauses Literals |    Limit  Clauses Lit/Cl |          |
===============================================================================
|       100 |   61996   103757   259319 |    38044      100      9 | 29.259 % |
|       250 |   61996   103757   259319 |    41848      250     43 | 29.259 % |
|       475 |   61996   103757   259319 |    46033      475     50 | 29.259 % |
|       812 |   61996   103757   259319 |    50636      812     69 | 29.259 % |
|      1318 |   61996   103757   259319 |    55700     1318     80 | 29.259 % |
|      2077 |   43477    50225   128134 |    61270     2050     64 | 50.390 % |
===============================================================================
restarts              : 15
conflicts             : 2782           (8933 /sec)
decisions             : 12626          (0.00 % random) (40544 /sec)
propagations          : 4064036        (13050226 /sec)
conflict literals     : 151172         (38.87 % deleted)
Memory used           : 24.29 MB
CPU time              : 0.311415 s

UNSATISFIABLE
